NAME: I16353-n29-k4
COMMENT : (Fake et al, No of trucks: 4, Optimal value: )
TYPE : CVRP
DIMENSION : 29
EDGE_WEIGHT_TYPE : EUC_2D
CAPACITY : 42
NODE_COORD_SECTION
1 29 998
2 658 457
3 565 909
4 848 328
5 919 612
6 205 617
7 675 451
8 463 261
9 615 880
10 944 186
11 923 623
12 393 401
13 842 301
14 725 245
15 9 265
16 33 956
17 938 350
18 640 115
19 431 399
20 478 117
21 313 845
22 617 635
23 995 800
24 133 817
25 332 682
26 646 12
27 922 77
28 366 804
29 983 403
DEMAND_SECTION
1 0
2 1
3 5
4 4
5 9
6 5
7 6
8 1
9 6
10 4
11 1
12 9
13 1
14 9
15 10
16 4
17 7
18 9
19 7
20 5
21 3
22 7
23 5
24 9
25 9
26 8
27 5
28 1
29 3
DEPOT_SECTION
 1
 -1
 EOF 